s td 12 29 40
b 1 1 2 3 4 5 6 7 8 9 12 15 16 17 18 20 21 22 23 27 28 29 30 31 32 34 37 38 39 40
b 2 1 2 3 4 5 7 8 9 12 15 16 17 18 20 21 22 23 26 27 28 29 30 31 32 34 37 38 39 40
b 3 1 2 3 4 5 7 8 9 10 15 17 18 20 21 22 23 26 27 28 29 30 31 32 34 37 38 39 40
b 4 1 3 4 7 10 11 18 21 23 26 27 28 34 37 38 40
b 5 2 4 5 7 8 9 10 14 20 22 23 26 30 38 39
b 6 3 5 8 9 10 19 20 21 23 28 29 30 32 37 39
b 7 1 2 3 4 6 7 8 9 12 15 16 17 18 20 21 22 23 27 28 29 30 31 32 33 34 37 38 39 40
b 8 1 2 3 4 6 7 8 9 12 15 16 17 18 20 22 23 25 27 28 29 30 31 32 33 34 37 38 39 40
b 9 1 2 3 4 6 7 8 9 12 15 16 17 20 23 25 27 28 29 30 31 32 33 34 35 37 38 39 40
b 10 1 2 3 4 6 7 8 9 12 15 16 17 20 23 24 25 27 28 29 30 32 34 35 37 38 39 40
b 11 2 3 4 7 13 15 16 17 20 23 24 25 27 28 29 30 34 35 37 38 39 40
b 12 1 3 15 16 17 24 28 29 30 32 34 35 36 38 39
1 2
1 7
2 3
3 4
3 5
3 6
7 8
8 9
9 10
10 11
10 12
